results_rootrelaxation/bin012_050_017.srr.sol
solution status: optimal solution found
objective value:                                    0
_var70_                                0.231510138694 	(obj:0)
_var162_                            0.285474352599077 	(obj:0)
_var241_                           0.0715547007944129 	(obj:0)
_var472_                           0.0752926938326015 	(obj:0)
_var689_                            0.135211346429523 	(obj:0)
_var691_                           0.0590290429000581 	(obj:0)
_var694_                            0.347292899037461 	(obj:0)
_var695_                            0.224811832391937 	(obj:0)
_var697_                            0.463307680782856 	(obj:0)
_var698_                          0.00741011065322256 	(obj:0)
_var699_                            0.258193765853095 	(obj:0)
_var700_                            0.236443216842654 	(obj:0)
_var702_                            0.417967900596901 	(obj:0)
_var704_                             0.20264795882378 	(obj:0)
_var706_                          0.00781877146416649 	(obj:0)
_var710_                           0.0107755869179587 	(obj:0)
_var711_                           0.0773703930197695 	(obj:0)
_var713_                            0.143618915923722 	(obj:0)
_var716_                           0.0336104570530133 	(obj:0)
_var720_                            0.486798390307802 	(obj:0)
_var721_                           0.0182853851584418 	(obj:0)
_var726_                            0.362501377262718 	(obj:0)
_var738_                            0.416448685085746 	(obj:0)
_var740_                            0.454154494773397 	(obj:0)
_var745_                            0.347080115590963 	(obj:0)
_var746_                            0.226974644957702 	(obj:0)
_var750_                            0.197569721556829 	(obj:0)
_var751_                             0.46236094018803 	(obj:0)
_var752_                            0.251217966618067 	(obj:0)
_var753_                            0.180866512490971 	(obj:0)
_var754_                           0.0881786261651353 	(obj:0)
_var756_                           0.0549109544999033 	(obj:0)
_var758_                            0.249404935060242 	(obj:0)
_var759_                           0.0428563350295771 	(obj:0)
_var760_                           0.0945906950090328 	(obj:0)
_var761_                            0.115338538463376 	(obj:0)
_var765_                            0.273187128758469 	(obj:0)
_var766_                            0.169848410740842 	(obj:0)
_var769_                             0.13167739231263 	(obj:0)
_var770_                            0.189443725774022 	(obj:0)
_var775_                            0.088666570671212 	(obj:0)
_var777_                            0.206935691012785 	(obj:0)
_var778_                            0.108341169399526 	(obj:0)
_var780_                            0.062178237908217 	(obj:0)
_var781_                           0.0948623582585334 	(obj:0)
_var784_                           0.0834845650385722 	(obj:0)
_var787_                          0.00911062932015915 	(obj:0)
_var789_                            0.145420288114617 	(obj:0)
_var790_                           0.0676528936508335 	(obj:0)
_var791_                            0.316538986882627 	(obj:0)
_var793_                            0.108057263814747 	(obj:0)
_var794_                           0.0261717809508093 	(obj:0)
_var798_                            0.260016707872813 	(obj:0)
_var799_                            0.174190941954426 	(obj:0)
_var800_                           0.0587731197959135 	(obj:0)
_var801_                           0.0847566019707837 	(obj:0)
_var802_                           0.0184818454912351 	(obj:0)
_var803_                            0.107688244851369 	(obj:0)
_var805_                            0.268638809718549 	(obj:0)
_var808_                            0.236258415876792 	(obj:0)
_var813_                           0.0748712077180347 	(obj:0)
_var816_                            0.159650545454333 	(obj:0)
_var818_                           0.0539642139050775 	(obj:0)
_var820_                           0.0822521699539285 	(obj:0)
